nK = 2153;
nT = 8;
nI = 21;
L = 29;
TT = 441;
np = 1;
nc = 3;
b = [38, 63, 35, 67, 20, 22, 68, 67, 26, 23, 23, 26, 68, 49, 36, 51, 61, 52, 41, 24, 48];
d = [97, 143, 140, 116, 57, 141, 141, 109, 115, 89, 135, 79, 137, 140, 83, 103, 121, 138, 74, 47, 99];
m = [2.4, 2.3, 2.3, 1.9, 2.1, 1.6, 2, 1.9, 2.3, 1.9, 1.8, 1.1, 1.6, 2.2, 2.4, 2.2, 1.8, 1.4, 1.4, 1.1, 1.9];
pt = [0.31, 0.3, 0.22, 0.2, 0.2, 0.21, 0.34, 0.23];
st = [17.67, 15.3, 9.46, 10.4, 10.4, 11.13, 18.7, 13.57];
arc = {<1, 0, 1, 1, 0, 0, 0, [1, 1, 1, 1, 1, 1, 1, 1]>, <2, 1, 2, 1, 0, 0, 0, [1, 1, 1, 1, 1, 1, 1, 1]>, <3, 2, 3, 1, 0, 0, 0, [1, 1, 1, 1, 1, 1, 1, 1]>, <4, 3, 4, 1, 0, 0, 0, [1, 1, 1, 1, 1, 1, 1, 1]>, <5, 4, 5, 1, 0, 0, 0, [1, 1, 1, 1, 1, 1, 1, 1]>, <6, 5, 6, 1, 0, 0, 0, [1, 1, 1, 1, 1, 1, 1, 1]>, <7, 6, 7, 1, 0, 0, 0, [1, 1, 1, 1, 1, 1, 1, 1]>, <8, 7, 8, 1, 0, 0, 0, [1, 1, 1, 1, 1, 1, 1, 1]>, <9, 8, 9, 1, 0, 0, 0, [1, 1, 1, 1, 1, 1, 1, 1]>, <10, 9, 10, 1, 0, 0, 0, [1, 1, 1, 1, 1, 1, 1, 1]>, <11, 10, 11, 1, 0, 0, 0, [1, 1, 1, 1, 1, 1, 1, 1]>, <12, 11, 12, 1, 0, 0, 0, [1, 1, 1, 1, 1, 1, 1, 1]>, <13, 12, 13, 1, 0, 0, 0, [1, 1, 1, 1, 1, 1, 1, 1]>, <14, 13, 14, 1, 0, 0, 0, [1, 1, 1, 1, 1, 1, 1, 1]>, <15, 14, 15, 1, 0, 0, 0, [1, 1, 1, 1, 1, 1, 1, 1]>, <16, 15, 16, 1, 0, 0, 0, [1, 1, 1, 1, 1, 1, 1, 1]>, <17, 16, 17, 1, 0, 0, 0, [1, 1, 1, 1, 1, 1, 1, 1]>, <18, 17, 18, 1, 0, 0, 0, [1, 1, 1, 1, 1, 1, 1, 1]>, <19, 18, 19, 1, 0, 0, 0, [1, 1, 1, 1, 1, 1, 1, 1]>, <20, 19, 20, 1, 0, 0, 0, [1, 1, 1, 1, 1, 1, 1, 1]>, <21, 20, 21, 1, 0, 0, 0, [1, 1, 1, 1, 1, 1, 1, 1]>, <22, 21, 22, 1, 0, 0, 0, [1, 1, 1, 1, 1, 1, 1, 1]>, <23, 22, 23, 1, 0, 0, 0, [1, 1, 1, 1, 1, 1, 1, 1]>, <24, 23, 24, 1, 0, 0, 0, [1, 1, 1, 1, 1, 1, 1, 1]>, <25, 24, 25, 1, 0, 0, 0, [1, 1, 1, 1, 1, 1, 1, 1]>, <26, 25, 26, 1, 0, 0, 0, [1, 1, 1, 1, 1, 1, 1, 1]>, <27, 26, 27, 1, 0, 0, 0, [1, 1, 1, 1, 1, 1, 1, 1]>, <28, 27, 28, 1, 0, 0, 0, [1, 1, 1, 1, 1, 1, 1, 1]>, <29, 28, 29, 1, 0, 0, 0, [1, 1, 1, 1, 1, 1, 1, 1]>, <30, 0, 14, 14, 1, 0, 0, [1, 1, 0, 0, 0, 0, 1, 1]>, <31, 1, 15, 14, 1, 0, 0, [1, 1, 0, 0, 0, 0, 1, 1]>, <32, 2, 16, 14, 1, 0, 0, [1, 1, 0, 0, 0, 0, 1, 1]>, <33, 3, 17, 14, 1, 0, 0, [1, 1, 0, 0, 0, 0, 1, 1]>, <34, 4, 18, 14, 1, 0, 0, [1, 1, 0, 0, 0, 0, 1, 1]>, <35, 5, 19, 14, 1, 0, 0, [1, 1, 0, 0, 0, 0, 1, 1]>, <36, 6, 20, 14, 1, 0, 0, [1, 1, 0, 0, 0, 0, 1, 1]>, <37, 7, 21, 14, 1, 0, 0, [1, 1, 0, 0, 0, 0, 1, 1]>, <38, 8, 22, 14, 1, 0, 0, [1, 1, 0, 0, 0, 0, 1, 1]>, <39, 9, 23, 14, 1, 0, 0, [1, 1, 0, 0, 0, 0, 1, 1]>, <40, 10, 24, 14, 1, 0, 0, [1, 1, 0, 0, 0, 0, 1, 1]>, <41, 11, 25, 14, 1, 0, 0, [1, 1, 0, 0, 0, 0, 1, 1]>, <42, 12, 26, 14, 1, 0, 0, [1, 1, 0, 0, 0, 0, 1, 1]>, <43, 13, 27, 14, 1, 0, 0, [1, 1, 0, 0, 0, 0, 1, 1]>, <44, 14, 28, 14, 1, 0, 0, [1, 1, 0, 0, 0, 0, 1, 1]>, <45, 15, 29, 14, 1, 0, 0, [1, 1, 0, 0, 0, 0, 1, 1]>, <46, 0, 12, 12, 2, 0, 0, [1, 1, 1, 0, 0, 0, 0, 1]>, <47, 1, 13, 12, 2, 0, 0, [1, 1, 1, 0, 0, 0, 0, 1]>, <48, 2, 14, 12, 2, 0, 0, [1, 1, 1, 0, 0, 0, 0, 1]>, <49, 3, 15, 12, 2, 0, 0, [1, 1, 1, 0, 0, 0, 0, 1]>, <50, 4, 16, 12, 2, 0, 0, [1, 1, 1, 0, 0, 0, 0, 1]>, <51, 5, 17, 12, 2, 0, 0, [1, 1, 1, 0, 0, 0, 0, 1]>, <52, 8, 20, 12, 2, 0, 0, [1, 1, 1, 0, 0, 0, 0, 1]>, <53, 9, 21, 12, 2, 0, 0, [1, 1, 1, 0, 0, 0, 0, 1]>, <54, 10, 22, 12, 2, 0, 0, [1, 1, 1, 0, 0, 0, 0, 1]>, <55, 11, 23, 12, 2, 0, 0, [1, 1, 1, 0, 0, 0, 0, 1]>, <56, 12, 24, 12, 2, 0, 0, [1, 1, 1, 0, 0, 0, 0, 1]>, <57, 13, 25, 12, 2, 0, 0, [1, 1, 1, 0, 0, 0, 0, 1]>, <58, 14, 26, 12, 2, 0, 0, [1, 1, 1, 0, 0, 0, 0, 1]>, <59, 15, 27, 12, 2, 0, 0, [1, 1, 1, 0, 0, 0, 0, 1]>, <60, 16, 28, 12, 2, 0, 0, [1, 1, 1, 0, 0, 0, 0, 1]>, <61, 17, 29, 12, 2, 0, 0, [1, 1, 1, 0, 0, 0, 0, 1]>, <62, 0, 14, 14, 3, 1, 0, [0, 1, 1, 1, 1, 0, 0, 0]>, <63, 1, 15, 14, 3, 1, 0, [0, 1, 1, 1, 1, 0, 0, 0]>, <64, 2, 16, 14, 3, 1, 0, [0, 1, 1, 1, 1, 0, 0, 0]>, <65, 3, 17, 14, 3, 1, 0, [0, 1, 1, 1, 1, 0, 0, 0]>, <66, 4, 18, 14, 3, 1, 0, [0, 1, 1, 1, 1, 0, 0, 0]>, <67, 5, 19, 14, 3, 1, 0, [0, 1, 1, 1, 1, 0, 0, 0]>, <68, 6, 20, 14, 3, 1, 0, [0, 1, 1, 1, 1, 0, 0, 0]>, <69, 7, 21, 14, 3, 1, 0, [0, 1, 1, 1, 1, 0, 0, 0]>, <70, 8, 22, 14, 3, 1, 0, [0, 1, 1, 1, 1, 0, 0, 0]>, <71, 9, 23, 14, 3, 1, 0, [0, 1, 1, 1, 1, 0, 0, 0]>, <72, 10, 24, 14, 3, 1, 0, [0, 1, 1, 1, 1, 0, 0, 0]>, <73, 11, 25, 14, 3, 1, 0, [0, 1, 1, 1, 1, 0, 0, 0]>, <74, 12, 26, 14, 3, 1, 0, [0, 1, 1, 1, 1, 0, 0, 0]>, <75, 13, 27, 14, 3, 1, 0, [0, 1, 1, 1, 1, 0, 0, 0]>, <76, 14, 28, 14, 3, 1, 0, [0, 1, 1, 1, 1, 0, 0, 0]>, <77, 15, 29, 14, 3, 1, 0, [0, 1, 1, 1, 1, 0, 0, 0]>, <78, 0, 12, 12, 4, 0, 1, [1, 1, 1, 1, 0, 0, 0, 0]>, <79, 1, 13, 12, 4, 0, 1, [1, 1, 1, 1, 0, 0, 0, 0]>, <80, 2, 14, 12, 4, 0, 1, [1, 1, 1, 1, 0, 0, 0, 0]>, <81, 3, 15, 12, 4, 0, 1, [1, 1, 1, 1, 0, 0, 0, 0]>, <82, 4, 16, 12, 4, 0, 1, [1, 1, 1, 1, 0, 0, 0, 0]>, <83, 5, 17, 12, 4, 0, 1, [1, 1, 1, 1, 0, 0, 0, 0]>, <84, 8, 20, 12, 4, 0, 1, [1, 1, 1, 1, 0, 0, 0, 0]>, <85, 9, 21, 12, 4, 0, 1, [1, 1, 1, 1, 0, 0, 0, 0]>, <86, 10, 22, 12, 4, 0, 1, [1, 1, 1, 1, 0, 0, 0, 0]>, <87, 11, 23, 12, 4, 0, 1, [1, 1, 1, 1, 0, 0, 0, 0]>, <88, 12, 24, 12, 4, 0, 1, [1, 1, 1, 1, 0, 0, 0, 0]>, <89, 13, 25, 12, 4, 0, 1, [1, 1, 1, 1, 0, 0, 0, 0]>, <90, 14, 26, 12, 4, 0, 1, [1, 1, 1, 1, 0, 0, 0, 0]>, <91, 15, 27, 12, 4, 0, 1, [1, 1, 1, 1, 0, 0, 0, 0]>, <92, 16, 28, 12, 4, 0, 1, [1, 1, 1, 1, 0, 0, 0, 0]>, <93, 17, 29, 12, 4, 0, 1, [1, 1, 1, 1, 0, 0, 0, 0]>, <94, 0, 12, 12, 5, 0, 1, [1, 1, 1, 1, 0, 0, 0, 0]>, <95, 1, 13, 12, 5, 0, 1, [1, 1, 1, 1, 0, 0, 0, 0]>, <96, 2, 14, 12, 5, 0, 1, [1, 1, 1, 1, 0, 0, 0, 0]>, <97, 3, 15, 12, 5, 0, 1, [1, 1, 1, 1, 0, 0, 0, 0]>, <98, 4, 16, 12, 5, 0, 1, [1, 1, 1, 1, 0, 0, 0, 0]>, <99, 5, 17, 12, 5, 0, 1, [1, 1, 1, 1, 0, 0, 0, 0]>, <100, 8, 20, 12, 5, 0, 1, [1, 1, 1, 1, 0, 0, 0, 0]>, <101, 9, 21, 12, 5, 0, 1, [1, 1, 1, 1, 0, 0, 0, 0]>, <102, 10, 22, 12, 5, 0, 1, [1, 1, 1, 1, 0, 0, 0, 0]>, <103, 11, 23, 12, 5, 0, 1, [1, 1, 1, 1, 0, 0, 0, 0]>, <104, 12, 24, 12, 5, 0, 1, [1, 1, 1, 1, 0, 0, 0, 0]>, <105, 13, 25, 12, 5, 0, 1, [1, 1, 1, 1, 0, 0, 0, 0]>, <106, 14, 26, 12, 5, 0, 1, [1, 1, 1, 1, 0, 0, 0, 0]>, <107, 15, 27, 12, 5, 0, 1, [1, 1, 1, 1, 0, 0, 0, 0]>, <108, 16, 28, 12, 5, 0, 1, [1, 1, 1, 1, 0, 0, 0, 0]>, <109, 17, 29, 12, 5, 0, 1, [1, 1, 1, 1, 0, 0, 0, 0]>, <110, 0, 14, 14, 6, 0, 0, [1, 1, 1, 0, 0, 0, 0, 1]>, <111, 1, 15, 14, 6, 0, 0, [1, 1, 1, 0, 0, 0, 0, 1]>, <112, 2, 16, 14, 6, 0, 0, [1, 1, 1, 0, 0, 0, 0, 1]>, <113, 3, 17, 14, 6, 0, 0, [1, 1, 1, 0, 0, 0, 0, 1]>, <114, 4, 18, 14, 6, 0, 0, [1, 1, 1, 0, 0, 0, 0, 1]>, <115, 5, 19, 14, 6, 0, 0, [1, 1, 1, 0, 0, 0, 0, 1]>, <116, 6, 20, 14, 6, 0, 0, [1, 1, 1, 0, 0, 0, 0, 1]>, <117, 7, 21, 14, 6, 0, 0, [1, 1, 1, 0, 0, 0, 0, 1]>, <118, 8, 22, 14, 6, 0, 0, [1, 1, 1, 0, 0, 0, 0, 1]>, <119, 9, 23, 14, 6, 0, 0, [1, 1, 1, 0, 0, 0, 0, 1]>, <120, 10, 24, 14, 6, 0, 0, [1, 1, 1, 0, 0, 0, 0, 1]>, <121, 11, 25, 14, 6, 0, 0, [1, 1, 1, 0, 0, 0, 0, 1]>, <122, 12, 26, 14, 6, 0, 0, [1, 1, 1, 0, 0, 0, 0, 1]>, <123, 13, 27, 14, 6, 0, 0, [1, 1, 1, 0, 0, 0, 0, 1]>, <124, 14, 28, 14, 6, 0, 0, [1, 1, 1, 0, 0, 0, 0, 1]>, <125, 15, 29, 14, 6, 0, 0, [1, 1, 1, 0, 0, 0, 0, 1]>, <126, 0, 13, 13, 7, 0, 1, [1, 1, 1, 1, 0, 0, 0, 0]>, <127, 1, 14, 13, 7, 0, 1, [1, 1, 1, 1, 0, 0, 0, 0]>, <128, 2, 15, 13, 7, 0, 1, [1, 1, 1, 1, 0, 0, 0, 0]>, <129, 3, 16, 13, 7, 0, 1, [1, 1, 1, 1, 0, 0, 0, 0]>, <130, 4, 17, 13, 7, 0, 1, [1, 1, 1, 1, 0, 0, 0, 0]>, <131, 5, 18, 13, 7, 0, 1, [1, 1, 1, 1, 0, 0, 0, 0]>, <132, 7, 20, 13, 7, 0, 1, [1, 1, 1, 1, 0, 0, 0, 0]>, <133, 8, 21, 13, 7, 0, 1, [1, 1, 1, 1, 0, 0, 0, 0]>, <134, 9, 22, 13, 7, 0, 1, [1, 1, 1, 1, 0, 0, 0, 0]>, <135, 10, 23, 13, 7, 0, 1, [1, 1, 1, 1, 0, 0, 0, 0]>, <136, 11, 24, 13, 7, 0, 1, [1, 1, 1, 1, 0, 0, 0, 0]>, <137, 12, 25, 13, 7, 0, 1, [1, 1, 1, 1, 0, 0, 0, 0]>, <138, 13, 26, 13, 7, 0, 1, [1, 1, 1, 1, 0, 0, 0, 0]>, <139, 14, 27, 13, 7, 0, 1, [1, 1, 1, 1, 0, 0, 0, 0]>, <140, 15, 28, 13, 7, 0, 1, [1, 1, 1, 1, 0, 0, 0, 0]>, <141, 16, 29, 13, 7, 0, 1, [1, 1, 1, 1, 0, 0, 0, 0]>, <142, 0, 14, 14, 8, 1, 0, [1, 1, 1, 1, 0, 0, 0, 0]>, <143, 1, 15, 14, 8, 1, 0, [1, 1, 1, 1, 0, 0, 0, 0]>, <144, 2, 16, 14, 8, 1, 0, [1, 1, 1, 1, 0, 0, 0, 0]>, <145, 3, 17, 14, 8, 1, 0, [1, 1, 1, 1, 0, 0, 0, 0]>, <146, 4, 18, 14, 8, 1, 0, [1, 1, 1, 1, 0, 0, 0, 0]>, <147, 5, 19, 14, 8, 1, 0, [1, 1, 1, 1, 0, 0, 0, 0]>, <148, 6, 20, 14, 8, 1, 0, [1, 1, 1, 1, 0, 0, 0, 0]>, <149, 7, 21, 14, 8, 1, 0, [1, 1, 1, 1, 0, 0, 0, 0]>, <150, 8, 22, 14, 8, 1, 0, [1, 1, 1, 1, 0, 0, 0, 0]>, <151, 9, 23, 14, 8, 1, 0, [1, 1, 1, 1, 0, 0, 0, 0]>, <152, 10, 24, 14, 8, 1, 0, [1, 1, 1, 1, 0, 0, 0, 0]>, <153, 11, 25, 14, 8, 1, 0, [1, 1, 1, 1, 0, 0, 0, 0]>, <154, 12, 26, 14, 8, 1, 0, [1, 1, 1, 1, 0, 0, 0, 0]>, <155, 13, 27, 14, 8, 1, 0, [1, 1, 1, 1, 0, 0, 0, 0]>, <156, 14, 28, 14, 8, 1, 0, [1, 1, 1, 1, 0, 0, 0, 0]>, <157, 15, 29, 14, 8, 1, 0, [1, 1, 1, 1, 0, 0, 0, 0]>, <158, 1, 12, 11, 9, 0, 0, [1, 1, 0, 0, 0, 0, 1, 1]>, <159, 2, 13, 11, 9, 0, 0, [1, 1, 0, 0, 0, 0, 1, 1]>, <160, 3, 14, 11, 9, 0, 0, [1, 1, 0, 0, 0, 0, 1, 1]>, <161, 4, 15, 11, 9, 0, 0, [1, 1, 0, 0, 0, 0, 1, 1]>, <162, 5, 16, 11, 9, 0, 0, [1, 1, 0, 0, 0, 0, 1, 1]>, <163, 9, 20, 11, 9, 0, 0, [1, 1, 0, 0, 0, 0, 1, 1]>, <164, 10, 21, 11, 9, 0, 0, [1, 1, 0, 0, 0, 0, 1, 1]>, <165, 11, 22, 11, 9, 0, 0, [1, 1, 0, 0, 0, 0, 1, 1]>, <166, 12, 23, 11, 9, 0, 0, [1, 1, 0, 0, 0, 0, 1, 1]>, <167, 13, 24, 11, 9, 0, 0, [1, 1, 0, 0, 0, 0, 1, 1]>, <168, 14, 25, 11, 9, 0, 0, [1, 1, 0, 0, 0, 0, 1, 1]>, <169, 15, 26, 11, 9, 0, 0, [1, 1, 0, 0, 0, 0, 1, 1]>, <170, 16, 27, 11, 9, 0, 0, [1, 1, 0, 0, 0, 0, 1, 1]>, <171, 17, 28, 11, 9, 0, 0, [1, 1, 0, 0, 0, 0, 1, 1]>, <172, 18, 29, 11, 9, 0, 0, [1, 1, 0, 0, 0, 0, 1, 1]>, <173, 1, 12, 11, 10, 0, 0, [1, 1, 1, 1, 0, 0, 0, 0]>, <174, 2, 13, 11, 10, 0, 0, [1, 1, 1, 1, 0, 0, 0, 0]>, <175, 3, 14, 11, 10, 0, 0, [1, 1, 1, 1, 0, 0, 0, 0]>, <176, 4, 15, 11, 10, 0, 0, [1, 1, 1, 1, 0, 0, 0, 0]>, <177, 5, 16, 11, 10, 0, 0, [1, 1, 1, 1, 0, 0, 0, 0]>, <178, 9, 20, 11, 10, 0, 0, [1, 1, 1, 1, 0, 0, 0, 0]>, <179, 10, 21, 11, 10, 0, 0, [1, 1, 1, 1, 0, 0, 0, 0]>, <180, 11, 22, 11, 10, 0, 0, [1, 1, 1, 1, 0, 0, 0, 0]>, <181, 12, 23, 11, 10, 0, 0, [1, 1, 1, 1, 0, 0, 0, 0]>, <182, 13, 24, 11, 10, 0, 0, [1, 1, 1, 1, 0, 0, 0, 0]>, <183, 14, 25, 11, 10, 0, 0, [1, 1, 1, 1, 0, 0, 0, 0]>, <184, 15, 26, 11, 10, 0, 0, [1, 1, 1, 1, 0, 0, 0, 0]>, <185, 16, 27, 11, 10, 0, 0, [1, 1, 1, 1, 0, 0, 0, 0]>, <186, 17, 28, 11, 10, 0, 0, [1, 1, 1, 1, 0, 0, 0, 0]>, <187, 18, 29, 11, 10, 0, 0, [1, 1, 1, 1, 0, 0, 0, 0]>, <188, 1, 12, 11, 11, 0, 0, [0, 1, 1, 1, 1, 0, 0, 0]>, <189, 2, 13, 11, 11, 0, 0, [0, 1, 1, 1, 1, 0, 0, 0]>, <190, 3, 14, 11, 11, 0, 0, [0, 1, 1, 1, 1, 0, 0, 0]>, <191, 4, 15, 11, 11, 0, 0, [0, 1, 1, 1, 1, 0, 0, 0]>, <192, 5, 16, 11, 11, 0, 0, [0, 1, 1, 1, 1, 0, 0, 0]>, <193, 9, 20, 11, 11, 0, 0, [0, 1, 1, 1, 1, 0, 0, 0]>, <194, 10, 21, 11, 11, 0, 0, [0, 1, 1, 1, 1, 0, 0, 0]>, <195, 11, 22, 11, 11, 0, 0, [0, 1, 1, 1, 1, 0, 0, 0]>, <196, 12, 23, 11, 11, 0, 0, [0, 1, 1, 1, 1, 0, 0, 0]>, <197, 13, 24, 11, 11, 0, 0, [0, 1, 1, 1, 1, 0, 0, 0]>, <198, 14, 25, 11, 11, 0, 0, [0, 1, 1, 1, 1, 0, 0, 0]>, <199, 15, 26, 11, 11, 0, 0, [0, 1, 1, 1, 1, 0, 0, 0]>, <200, 16, 27, 11, 11, 0, 0, [0, 1, 1, 1, 1, 0, 0, 0]>, <201, 17, 28, 11, 11, 0, 0, [0, 1, 1, 1, 1, 0, 0, 0]>, <202, 18, 29, 11, 11, 0, 0, [0, 1, 1, 1, 1, 0, 0, 0]>, <203, 1, 12, 11, 12, 0, 1, [0, 0, 0, 0, 1, 1, 1, 1]>, <204, 2, 13, 11, 12, 0, 1, [0, 0, 0, 0, 1, 1, 1, 1]>, <205, 3, 14, 11, 12, 0, 1, [0, 0, 0, 0, 1, 1, 1, 1]>, <206, 4, 15, 11, 12, 0, 1, [0, 0, 0, 0, 1, 1, 1, 1]>, <207, 5, 16, 11, 12, 0, 1, [0, 0, 0, 0, 1, 1, 1, 1]>, <208, 9, 20, 11, 12, 0, 1, [0, 0, 0, 0, 1, 1, 1, 1]>, <209, 10, 21, 11, 12, 0, 1, [0, 0, 0, 0, 1, 1, 1, 1]>, <210, 11, 22, 11, 12, 0, 1, [0, 0, 0, 0, 1, 1, 1, 1]>, <211, 12, 23, 11, 12, 0, 1, [0, 0, 0, 0, 1, 1, 1, 1]>, <212, 13, 24, 11, 12, 0, 1, [0, 0, 0, 0, 1, 1, 1, 1]>, <213, 14, 25, 11, 12, 0, 1, [0, 0, 0, 0, 1, 1, 1, 1]>, <214, 15, 26, 11, 12, 0, 1, [0, 0, 0, 0, 1, 1, 1, 1]>, <215, 16, 27, 11, 12, 0, 1, [0, 0, 0, 0, 1, 1, 1, 1]>, <216, 17, 28, 11, 12, 0, 1, [0, 0, 0, 0, 1, 1, 1, 1]>, <217, 18, 29, 11, 12, 0, 1, [0, 0, 0, 0, 1, 1, 1, 1]>, <218, 0, 14, 14, 13, 0, 0, [0, 1, 1, 1, 1, 0, 0, 0]>, <219, 1, 15, 14, 13, 0, 0, [0, 1, 1, 1, 1, 0, 0, 0]>, <220, 2, 16, 14, 13, 0, 0, [0, 1, 1, 1, 1, 0, 0, 0]>, <221, 3, 17, 14, 13, 0, 0, [0, 1, 1, 1, 1, 0, 0, 0]>, <222, 4, 18, 14, 13, 0, 0, [0, 1, 1, 1, 1, 0, 0, 0]>, <223, 5, 19, 14, 13, 0, 0, [0, 1, 1, 1, 1, 0, 0, 0]>, <224, 6, 20, 14, 13, 0, 0, [0, 1, 1, 1, 1, 0, 0, 0]>, <225, 7, 21, 14, 13, 0, 0, [0, 1, 1, 1, 1, 0, 0, 0]>, <226, 8, 22, 14, 13, 0, 0, [0, 1, 1, 1, 1, 0, 0, 0]>, <227, 9, 23, 14, 13, 0, 0, [0, 1, 1, 1, 1, 0, 0, 0]>, <228, 10, 24, 14, 13, 0, 0, [0, 1, 1, 1, 1, 0, 0, 0]>, <229, 11, 25, 14, 13, 0, 0, [0, 1, 1, 1, 1, 0, 0, 0]>, <230, 12, 26, 14, 13, 0, 0, [0, 1, 1, 1, 1, 0, 0, 0]>, <231, 13, 27, 14, 13, 0, 0, [0, 1, 1, 1, 1, 0, 0, 0]>, <232, 14, 28, 14, 13, 0, 0, [0, 1, 1, 1, 1, 0, 0, 0]>, <233, 15, 29, 14, 13, 0, 0, [0, 1, 1, 1, 1, 0, 0, 0]>, <234, 0, 13, 13, 14, 0, 0, [1, 0, 0, 0, 0, 1, 1, 1]>, <235, 1, 14, 13, 14, 0, 0, [1, 0, 0, 0, 0, 1, 1, 1]>, <236, 2, 15, 13, 14, 0, 0, [1, 0, 0, 0, 0, 1, 1, 1]>, <237, 3, 16, 13, 14, 0, 0, [1, 0, 0, 0, 0, 1, 1, 1]>, <238, 4, 17, 13, 14, 0, 0, [1, 0, 0, 0, 0, 1, 1, 1]>, <239, 5, 18, 13, 14, 0, 0, [1, 0, 0, 0, 0, 1, 1, 1]>, <240, 7, 20, 13, 14, 0, 0, [1, 0, 0, 0, 0, 1, 1, 1]>, <241, 8, 21, 13, 14, 0, 0, [1, 0, 0, 0, 0, 1, 1, 1]>, <242, 9, 22, 13, 14, 0, 0, [1, 0, 0, 0, 0, 1, 1, 1]>, <243, 10, 23, 13, 14, 0, 0, [1, 0, 0, 0, 0, 1, 1, 1]>, <244, 11, 24, 13, 14, 0, 0, [1, 0, 0, 0, 0, 1, 1, 1]>, <245, 12, 25, 13, 14, 0, 0, [1, 0, 0, 0, 0, 1, 1, 1]>, <246, 13, 26, 13, 14, 0, 0, [1, 0, 0, 0, 0, 1, 1, 1]>, <247, 14, 27, 13, 14, 0, 0, [1, 0, 0, 0, 0, 1, 1, 1]>, <248, 15, 28, 13, 14, 0, 0, [1, 0, 0, 0, 0, 1, 1, 1]>, <249, 16, 29, 13, 14, 0, 0, [1, 0, 0, 0, 0, 1, 1, 1]>, <250, 0, 12, 12, 15, 0, 1, [1, 1, 0, 0, 0, 0, 1, 1]>, <251, 1, 13, 12, 15, 0, 1, [1, 1, 0, 0, 0, 0, 1, 1]>, <252, 2, 14, 12, 15, 0, 1, [1, 1, 0, 0, 0, 0, 1, 1]>, <253, 3, 15, 12, 15, 0, 1, [1, 1, 0, 0, 0, 0, 1, 1]>, <254, 4, 16, 12, 15, 0, 1, [1, 1, 0, 0, 0, 0, 1, 1]>, <255, 5, 17, 12, 15, 0, 1, [1, 1, 0, 0, 0, 0, 1, 1]>, <256, 8, 20, 12, 15, 0, 1, [1, 1, 0, 0, 0, 0, 1, 1]>, <257, 9, 21, 12, 15, 0, 1, [1, 1, 0, 0, 0, 0, 1, 1]>, <258, 10, 22, 12, 15, 0, 1, [1, 1, 0, 0, 0, 0, 1, 1]>, <259, 11, 23, 12, 15, 0, 1, [1, 1, 0, 0, 0, 0, 1, 1]>, <260, 12, 24, 12, 15, 0, 1, [1, 1, 0, 0, 0, 0, 1, 1]>, <261, 13, 25, 12, 15, 0, 1, [1, 1, 0, 0, 0, 0, 1, 1]>, <262, 14, 26, 12, 15, 0, 1, [1, 1, 0, 0, 0, 0, 1, 1]>, <263, 15, 27, 12, 15, 0, 1, [1, 1, 0, 0, 0, 0, 1, 1]>, <264, 16, 28, 12, 15, 0, 1, [1, 1, 0, 0, 0, 0, 1, 1]>, <265, 17, 29, 12, 15, 0, 1, [1, 1, 0, 0, 0, 0, 1, 1]>, <266, 0, 14, 14, 16, 0, 0, [0, 1, 1, 1, 1, 0, 0, 0]>, <267, 1, 15, 14, 16, 0, 0, [0, 1, 1, 1, 1, 0, 0, 0]>, <268, 2, 16, 14, 16, 0, 0, [0, 1, 1, 1, 1, 0, 0, 0]>, <269, 3, 17, 14, 16, 0, 0, [0, 1, 1, 1, 1, 0, 0, 0]>, <270, 4, 18, 14, 16, 0, 0, [0, 1, 1, 1, 1, 0, 0, 0]>, <271, 5, 19, 14, 16, 0, 0, [0, 1, 1, 1, 1, 0, 0, 0]>, <272, 6, 20, 14, 16, 0, 0, [0, 1, 1, 1, 1, 0, 0, 0]>, <273, 7, 21, 14, 16, 0, 0, [0, 1, 1, 1, 1, 0, 0, 0]>, <274, 8, 22, 14, 16, 0, 0, [0, 1, 1, 1, 1, 0, 0, 0]>, <275, 9, 23, 14, 16, 0, 0, [0, 1, 1, 1, 1, 0, 0, 0]>, <276, 10, 24, 14, 16, 0, 0, [0, 1, 1, 1, 1, 0, 0, 0]>, <277, 11, 25, 14, 16, 0, 0, [0, 1, 1, 1, 1, 0, 0, 0]>, <278, 12, 26, 14, 16, 0, 0, [0, 1, 1, 1, 1, 0, 0, 0]>, <279, 13, 27, 14, 16, 0, 0, [0, 1, 1, 1, 1, 0, 0, 0]>, <280, 14, 28, 14, 16, 0, 0, [0, 1, 1, 1, 1, 0, 0, 0]>, <281, 15, 29, 14, 16, 0, 0, [0, 1, 1, 1, 1, 0, 0, 0]>, <282, 0, 15, 15, 17, 0, 0, [1, 1, 1, 1, 0, 0, 0, 0]>, <283, 1, 16, 15, 17, 0, 0, [1, 1, 1, 1, 0, 0, 0, 0]>, <284, 2, 17, 15, 17, 0, 0, [1, 1, 1, 1, 0, 0, 0, 0]>, <285, 3, 18, 15, 17, 0, 0, [1, 1, 1, 1, 0, 0, 0, 0]>, <286, 4, 19, 15, 17, 0, 0, [1, 1, 1, 1, 0, 0, 0, 0]>, <287, 5, 20, 15, 17, 0, 0, [1, 1, 1, 1, 0, 0, 0, 0]>, <288, 6, 21, 15, 17, 0, 0, [1, 1, 1, 1, 0, 0, 0, 0]>, <289, 7, 22, 15, 17, 0, 0, [1, 1, 1, 1, 0, 0, 0, 0]>, <290, 8, 23, 15, 17, 0, 0, [1, 1, 1, 1, 0, 0, 0, 0]>, <291, 9, 24, 15, 17, 0, 0, [1, 1, 1, 1, 0, 0, 0, 0]>, <292, 10, 25, 15, 17, 0, 0, [1, 1, 1, 1, 0, 0, 0, 0]>, <293, 11, 26, 15, 17, 0, 0, [1, 1, 1, 1, 0, 0, 0, 0]>, <294, 12, 27, 15, 17, 0, 0, [1, 1, 1, 1, 0, 0, 0, 0]>, <295, 13, 28, 15, 17, 0, 0, [1, 1, 1, 1, 0, 0, 0, 0]>, <296, 14, 29, 15, 17, 0, 0, [1, 1, 1, 1, 0, 0, 0, 0]>, <297, 0, 12, 12, 18, 0, 0, [1, 0, 0, 0, 0, 1, 1, 1]>, <298, 1, 13, 12, 18, 0, 0, [1, 0, 0, 0, 0, 1, 1, 1]>, <299, 2, 14, 12, 18, 0, 0, [1, 0, 0, 0, 0, 1, 1, 1]>, <300, 3, 15, 12, 18, 0, 0, [1, 0, 0, 0, 0, 1, 1, 1]>, <301, 4, 16, 12, 18, 0, 0, [1, 0, 0, 0, 0, 1, 1, 1]>, <302, 5, 17, 12, 18, 0, 0, [1, 0, 0, 0, 0, 1, 1, 1]>, <303, 8, 20, 12, 18, 0, 0, [1, 0, 0, 0, 0, 1, 1, 1]>, <304, 9, 21, 12, 18, 0, 0, [1, 0, 0, 0, 0, 1, 1, 1]>, <305, 10, 22, 12, 18, 0, 0, [1, 0, 0, 0, 0, 1, 1, 1]>, <306, 11, 23, 12, 18, 0, 0, [1, 0, 0, 0, 0, 1, 1, 1]>, <307, 12, 24, 12, 18, 0, 0, [1, 0, 0, 0, 0, 1, 1, 1]>, <308, 13, 25, 12, 18, 0, 0, [1, 0, 0, 0, 0, 1, 1, 1]>, <309, 14, 26, 12, 18, 0, 0, [1, 0, 0, 0, 0, 1, 1, 1]>, <310, 15, 27, 12, 18, 0, 0, [1, 0, 0, 0, 0, 1, 1, 1]>, <311, 16, 28, 12, 18, 0, 0, [1, 0, 0, 0, 0, 1, 1, 1]>, <312, 17, 29, 12, 18, 0, 0, [1, 0, 0, 0, 0, 1, 1, 1]>, <313, 1, 12, 11, 19, 0, 0, [1, 1, 0, 0, 0, 0, 1, 1]>, <314, 2, 13, 11, 19, 0, 0, [1, 1, 0, 0, 0, 0, 1, 1]>, <315, 3, 14, 11, 19, 0, 0, [1, 1, 0, 0, 0, 0, 1, 1]>, <316, 4, 15, 11, 19, 0, 0, [1, 1, 0, 0, 0, 0, 1, 1]>, <317, 5, 16, 11, 19, 0, 0, [1, 1, 0, 0, 0, 0, 1, 1]>, <318, 9, 20, 11, 19, 0, 0, [1, 1, 0, 0, 0, 0, 1, 1]>, <319, 10, 21, 11, 19, 0, 0, [1, 1, 0, 0, 0, 0, 1, 1]>, <320, 11, 22, 11, 19, 0, 0, [1, 1, 0, 0, 0, 0, 1, 1]>, <321, 12, 23, 11, 19, 0, 0, [1, 1, 0, 0, 0, 0, 1, 1]>, <322, 13, 24, 11, 19, 0, 0, [1, 1, 0, 0, 0, 0, 1, 1]>, <323, 14, 25, 11, 19, 0, 0, [1, 1, 0, 0, 0, 0, 1, 1]>, <324, 15, 26, 11, 19, 0, 0, [1, 1, 0, 0, 0, 0, 1, 1]>, <325, 16, 27, 11, 19, 0, 0, [1, 1, 0, 0, 0, 0, 1, 1]>, <326, 17, 28, 11, 19, 0, 0, [1, 1, 0, 0, 0, 0, 1, 1]>, <327, 18, 29, 11, 19, 0, 0, [1, 1, 0, 0, 0, 0, 1, 1]>, <328, 2, 12, 10, 20, 1, 0, [0, 0, 0, 1, 1, 1, 1, 0]>, <329, 3, 13, 10, 20, 1, 0, [0, 0, 0, 1, 1, 1, 1, 0]>, <330, 4, 14, 10, 20, 1, 0, [0, 0, 0, 1, 1, 1, 1, 0]>, <331, 5, 15, 10, 20, 1, 0, [0, 0, 0, 1, 1, 1, 1, 0]>, <332, 10, 20, 10, 20, 1, 0, [0, 0, 0, 1, 1, 1, 1, 0]>, <333, 11, 21, 10, 20, 1, 0, [0, 0, 0, 1, 1, 1, 1, 0]>, <334, 12, 22, 10, 20, 1, 0, [0, 0, 0, 1, 1, 1, 1, 0]>, <335, 14, 24, 10, 20, 1, 0, [0, 0, 0, 1, 1, 1, 1, 0]>, <336, 15, 25, 10, 20, 1, 0, [0, 0, 0, 1, 1, 1, 1, 0]>, <337, 16, 26, 10, 20, 1, 0, [0, 0, 0, 1, 1, 1, 1, 0]>, <338, 17, 27, 10, 20, 1, 0, [0, 0, 0, 1, 1, 1, 1, 0]>, <339, 18, 28, 10, 20, 1, 0, [0, 0, 0, 1, 1, 1, 1, 0]>, <340, 19, 29, 10, 20, 1, 0, [0, 0, 0, 1, 1, 1, 1, 0]>, <341, 2, 12, 10, 21, 0, 0, [0, 0, 0, 1, 1, 1, 1, 0]>, <342, 3, 13, 10, 21, 0, 0, [0, 0, 0, 1, 1, 1, 1, 0]>, <343, 4, 14, 10, 21, 0, 0, [0, 0, 0, 1, 1, 1, 1, 0]>, <344, 5, 15, 10, 21, 0, 0, [0, 0, 0, 1, 1, 1, 1, 0]>, <345, 10, 20, 10, 21, 0, 0, [0, 0, 0, 1, 1, 1, 1, 0]>, <346, 11, 21, 10, 21, 0, 0, [0, 0, 0, 1, 1, 1, 1, 0]>, <347, 12, 22, 10, 21, 0, 0, [0, 0, 0, 1, 1, 1, 1, 0]>, <348, 14, 24, 10, 21, 0, 0, [0, 0, 0, 1, 1, 1, 1, 0]>, <349, 15, 25, 10, 21, 0, 0, [0, 0, 0, 1, 1, 1, 1, 0]>, <350, 16, 26, 10, 21, 0, 0, [0, 0, 0, 1, 1, 1, 1, 0]>, <351, 17, 27, 10, 21, 0, 0, [0, 0, 0, 1, 1, 1, 1, 0]>, <352, 18, 28, 10, 21, 0, 0, [0, 0, 0, 1, 1, 1, 1, 0]>, <353, 19, 29, 10, 21, 0, 0, [0, 0, 0, 1, 1, 1, 1, 0]>};
